(declare-fun symvar1117423544 () Int)
(assert ( and ( and ( and ( and true ( < symvar1117423544 110)) ( not ( < symvar1117423544 90))) ( not ( and ( > ( + symvar1117423544 5) 90) ( < ( + symvar1117423544 5) 100)))) ( not ( < ( + ( + symvar1117423544 5) 1) 110))))
(check-sat)
(get-model)
(exit)
